language Essence 1.3

letting class be
        function(1 --> 1, 2 --> 5, 3 --> 4, 4 --> 2, 5 --> 5, 6 --> 5, 7 --> 2, 8 --> 2, 9 --> 5, 10 --> 4, 11 --> 3,
                 12 --> 1, 13 --> 5, 14 --> 4, 15 --> 3, 16 --> 4, 17 --> 4, 18 --> 2, 19 --> 1, 20 --> 1, 21 --> 5)
letting deck_length be 74
letting deck_width be 62
letting length be
        function(1 --> 1, 2 --> 24, 3 --> 1, 4 --> 26, 5 --> 1, 6 --> 1, 7 --> 1, 8 --> 2, 9 --> 1, 10 --> 26, 11 --> 1,
                 12 --> 4, 13 --> 11, 14 --> 1, 15 --> 1, 16 --> 1, 17 --> 1, 18 --> 1, 19 --> 8, 20 --> 1, 21 --> 1)
letting n_classes be 5
letting n_containers be 21
letting separation be function()
letting width be
        function(1 --> 1, 2 --> 26, 3 --> 1, 4 --> 18, 5 --> 1, 6 --> 12, 7 --> 2, 8 --> 20, 9 --> 1, 10 --> 61,
                 11 --> 1, 12 --> 1, 13 --> 3, 14 --> 47, 15 --> 1, 16 --> 1, 17 --> 1, 18 --> 1, 19 --> 2, 20 --> 2,
                 21 --> 1)
